OS/applications/columnGen/data/colgen5.osil
<?xml version="1.0" encoding="UTF-8"?>
<osil xmlns="os.optimizationservices.org" xmlns:xsi="http://www.w3.org/2001/XMLSchema-instance"
    xsi:schemaLocation="os.optimizationservices.org http://www.optimizationservices.org/schemas/2.0/OSiL.xsd">
    <instanceHeader>
        <description>Generated from GAMS GMO problem</description>
    </instanceHeader>
    <instanceData>
        <variables numberOfVariables="91">
            <var name="zRouteDemand(1)"/>
            <var name="zRouteDistance(1)"/>
            <var name="x(1,1,2)" type="B" ub="1"/>
            <var name="x(1,1,3)" type="B" ub="1"/>
            <var name="x(1,1,4)" type="B" ub="1"/>
            <var name="x(1,1,5)" type="B" ub="1"/>
            <var name="x(1,2,1)" type="B" ub="1"/>
            <var name="x(1,2,3)" type="B" ub="1"/>
            <var name="x(1,2,4)" type="B" ub="1"/>
            <var name="x(1,2,5)" type="B" ub="1"/>
            <var name="x(1,3,1)" type="B" ub="1"/>
            <var name="x(1,3,2)" type="B" ub="1"/>
            <var name="x(1,3,4)" type="B" ub="1"/>
            <var name="x(1,3,5)" type="B" ub="1"/>
            <var name="x(1,4,1)" type="B" ub="1"/>
            <var name="x(1,4,2)" type="B" ub="1"/>
            <var name="x(1,4,3)" type="B" ub="1"/>
            <var name="x(1,4,5)" type="B" ub="1"/>
            <var name="x(1,5,1)" type="B" ub="1"/>
            <var name="x(1,5,2)" type="B" ub="1"/>
            <var name="x(1,5,3)" type="B" ub="1"/>
            <var name="x(1,5,4)" type="B" ub="1"/>
            <var name="z(1,1)" type="B" ub="1"/>
            <var name="z(1,2)" type="B" ub="1"/>
            <var name="z(1,3)" type="B" ub="1"/>
            <var name="z(1,4)" type="B" ub="1"/>
            <var name="z(1,5)" type="B" ub="1"/>
            <var name="y(1,1,2,2)"/>
            <var name="y(1,1,2,3)"/>
            <var name="y(1,1,2,4)"/>
            <var name="y(1,1,2,5)"/>
            <var name="y(1,1,3,2)"/>
            <var name="y(1,1,3,3)"/>
            <var name="y(1,1,3,4)"/>
            <var name="y(1,1,3,5)"/>
            <var name="y(1,1,4,2)"/>
            <var name="y(1,1,4,3)"/>
            <var name="y(1,1,4,4)"/>
            <var name="y(1,1,4,5)"/>
            <var name="y(1,1,5,2)"/>
            <var name="y(1,1,5,3)"/>
            <var name="y(1,1,5,4)"/>
            <var name="y(1,1,5,5)"/>
            <var name="y(1,2,3,2)"/>
            <var name="y(1,2,3,3)"/>
            <var name="y(1,2,3,4)"/>
            <var name="y(1,2,3,5)"/>
            <var name="y(1,2,4,2)"/>
            <var name="y(1,2,4,3)"/>
            <var name="y(1,2,4,4)"/>
            <var name="y(1,2,4,5)"/>
            <var name="y(1,2,5,2)"/>
            <var name="y(1,2,5,3)"/>
            <var name="y(1,2,5,4)"/>
            <var name="y(1,2,5,5)"/>
            <var name="y(1,3,2,2)"/>
            <var name="y(1,3,2,3)"/>
            <var name="y(1,3,2,4)"/>
            <var name="y(1,3,2,5)"/>
            <var name="y(1,3,4,2)"/>
            <var name="y(1,3,4,3)"/>
            <var name="y(1,3,4,4)"/>
            <var name="y(1,3,4,5)"/>
            <var name="y(1,3,5,2)"/>
            <var name="y(1,3,5,3)"/>
            <var name="y(1,3,5,4)"/>
            <var name="y(1,3,5,5)"/>
            <var name="y(1,4,2,2)"/>
            <var name="y(1,4,2,3)"/>
            <var name="y(1,4,2,4)"/>
            <var name="y(1,4,2,5)"/>
            <var name="y(1,4,3,2)"/>
            <var name="y(1,4,3,3)"/>
            <var name="y(1,4,3,4)"/>
            <var name="y(1,4,3,5)"/>
            <var name="y(1,4,5,2)"/>
            <var name="y(1,4,5,3)"/>
            <var name="y(1,4,5,4)"/>
            <var name="y(1,4,5,5)"/>
            <var name="y(1,5,2,2)"/>
            <var name="y(1,5,2,3)"/>
            <var name="y(1,5,2,4)"/>
            <var name="y(1,5,2,5)"/>
            <var name="y(1,5,3,2)"/>
            <var name="y(1,5,3,3)"/>
            <var name="y(1,5,3,4)"/>
            <var name="y(1,5,3,5)"/>
            <var name="y(1,5,4,2)"/>
            <var name="y(1,5,4,3)"/>
            <var name="y(1,5,4,4)"/>
            <var name="y(1,5,4,5)"/>
        </variables>
        <objectives numberOfObjectives="1">
            <obj maxOrMin="min" name="objective" numberOfObjCoef="20">
                <coef idx="2">3</coef>
                <coef idx="3">3</coef>
                <coef idx="4">3</coef>
                <coef idx="5">3</coef>
                <coef idx="6">3</coef>
                <coef idx="7">3</coef>
                <coef idx="8">3</coef>
                <coef idx="9">3</coef>
                <coef idx="10">3</coef>
                <coef idx="11">3</coef>
                <coef idx="12">3</coef>
                <coef idx="13">3</coef>
                <coef idx="14">3</coef>
                <coef idx="15">3</coef>
                <coef idx="16">3</coef>
                <coef idx="17">3</coef>
                <coef idx="18">3</coef>
                <coef idx="19">3</coef>
                <coef idx="20">3</coef>
                <coef idx="21">3</coef>
            </obj>
        </objectives>
        <constraints numberOfConstraints="100">
            <con name="routeDistance(1)" lb="0" ub="0"/>
            <con name="routeCapacity(1)" ub="25"/>
            <con name="nodeAssign(1)" lb="1" ub="1"/>
            <con name="nodeAssign(2)" lb="1" ub="1"/>
            <con name="nodeAssign(3)" lb="1" ub="1"/>
            <con name="nodeAssign(4)" lb="1" ub="1"/>
            <con name="nodeAssign(5)" lb="1" ub="1"/>
            <con name="nodeAssignRoute(1)" lb="1" ub="1"/>
            <con name="assignOUT(1,1)" lb="0" ub="0"/>
            <con name="assignOUT(2,1)" lb="0" ub="0"/>
            <con name="assignOUT(3,1)" lb="0" ub="0"/>
            <con name="assignOUT(4,1)" lb="0" ub="0"/>
            <con name="assignOUT(5,1)" lb="0" ub="0"/>
            <con name="assignIN(1,1)" lb="0" ub="0"/>
            <con name="assignIN(2,1)" lb="0" ub="0"/>
            <con name="assignIN(3,1)" lb="0" ub="0"/>
            <con name="assignIN(4,1)" lb="0" ub="0"/>
            <con name="assignIN(5,1)" lb="0" ub="0"/>
            <con name="minNodes(1)" lb="3"/>
            <con name="linking(2,1,2,1)" ub="0"/>
            <con name="linking(2,1,3,1)" ub="0"/>
            <con name="linking(2,1,4,1)" ub="0"/>
            <con name="linking(2,1,5,1)" ub="0"/>
            <con name="linking(2,2,3,1)" ub="0"/>
            <con name="linking(2,2,4,1)" ub="0"/>
            <con name="linking(2,2,5,1)" ub="0"/>
            <con name="linking(2,3,2,1)" ub="0"/>
            <con name="linking(2,3,4,1)" ub="0"/>
            <con name="linking(2,3,5,1)" ub="0"/>
            <con name="linking(2,4,2,1)" ub="0"/>
            <con name="linking(2,4,3,1)" ub="0"/>
            <con name="linking(2,4,5,1)" ub="0"/>
            <con name="linking(2,5,2,1)" ub="0"/>
            <con name="linking(2,5,3,1)" ub="0"/>
            <con name="linking(2,5,4,1)" ub="0"/>
            <con name="linking(3,1,2,1)" ub="0"/>
            <con name="linking(3,1,3,1)" ub="0"/>
            <con name="linking(3,1,4,1)" ub="0"/>
            <con name="linking(3,1,5,1)" ub="0"/>
            <con name="linking(3,2,3,1)" ub="0"/>
            <con name="linking(3,2,4,1)" ub="0"/>
            <con name="linking(3,2,5,1)" ub="0"/>
            <con name="linking(3,3,2,1)" ub="0"/>
            <con name="linking(3,3,4,1)" ub="0"/>
            <con name="linking(3,3,5,1)" ub="0"/>
            <con name="linking(3,4,2,1)" ub="0"/>
            <con name="linking(3,4,3,1)" ub="0"/>
            <con name="linking(3,4,5,1)" ub="0"/>
            <con name="linking(3,5,2,1)" ub="0"/>
            <con name="linking(3,5,3,1)" ub="0"/>
            <con name="linking(3,5,4,1)" ub="0"/>
            <con name="linking(4,1,2,1)" ub="0"/>
            <con name="linking(4,1,3,1)" ub="0"/>
            <con name="linking(4,1,4,1)" ub="0"/>
            <con name="linking(4,1,5,1)" ub="0"/>
            <con name="linking(4,2,3,1)" ub="0"/>
            <con name="linking(4,2,4,1)" ub="0"/>
            <con name="linking(4,2,5,1)" ub="0"/>
            <con name="linking(4,3,2,1)" ub="0"/>
            <con name="linking(4,3,4,1)" ub="0"/>
            <con name="linking(4,3,5,1)" ub="0"/>
            <con name="linking(4,4,2,1)" ub="0"/>
            <con name="linking(4,4,3,1)" ub="0"/>
            <con name="linking(4,4,5,1)" ub="0"/>
            <con name="linking(4,5,2,1)" ub="0"/>
            <con name="linking(4,5,3,1)" ub="0"/>
            <con name="linking(4,5,4,1)" ub="0"/>
            <con name="linking(5,1,2,1)" ub="0"/>
            <con name="linking(5,1,3,1)" ub="0"/>
            <con name="linking(5,1,4,1)" ub="0"/>
            <con name="linking(5,1,5,1)" ub="0"/>
            <con name="linking(5,2,3,1)" ub="0"/>
            <con name="linking(5,2,4,1)" ub="0"/>
            <con name="linking(5,2,5,1)" ub="0"/>
            <con name="linking(5,3,2,1)" ub="0"/>
            <con name="linking(5,3,4,1)" ub="0"/>
            <con name="linking(5,3,5,1)" ub="0"/>
            <con name="linking(5,4,2,1)" ub="0"/>
            <con name="linking(5,4,3,1)" ub="0"/>
            <con name="linking(5,4,5,1)" ub="0"/>
            <con name="linking(5,5,2,1)" ub="0"/>
            <con name="linking(5,5,3,1)" ub="0"/>
            <con name="linking(5,5,4,1)" ub="0"/>
            <con name="commodityDemand(2,1)" lb="0" ub="0"/>
            <con name="commodityDemand(3,1)" lb="0" ub="0"/>
            <con name="commodityDemand(4,1)" lb="0" ub="0"/>
            <con name="commodityDemand(5,1)" lb="0" ub="0"/>
            <con name="conservation(2,3,1)" lb="0" ub="0"/>
            <con name="conservation(2,4,1)" lb="0" ub="0"/>
            <con name="conservation(2,5,1)" lb="0" ub="0"/>
            <con name="conservation(3,2,1)" lb="0" ub="0"/>
            <con name="conservation(3,4,1)" lb="0" ub="0"/>
            <con name="conservation(3,5,1)" lb="0" ub="0"/>
            <con name="conservation(4,2,1)" lb="0" ub="0"/>
            <con name="conservation(4,3,1)" lb="0" ub="0"/>
            <con name="conservation(4,5,1)" lb="0" ub="0"/>
            <con name="conservation(5,2,1)" lb="0" ub="0"/>
            <con name="conservation(5,3,1)" lb="0" ub="0"/>
            <con name="conservation(5,4,1)" lb="0" ub="0"/>
            <con name="routeDemand(1)" lb="0" ub="0"/>
        </constraints>
        <linearConstraintCoefficients numberOfValues="310">
            <start>
                <el>0</el>
                <el>1</el>
                <el>2</el>
                <el>9</el>
                <el>16</el>
                <el>23</el>
                <el>30</el>
                <el>33</el>
                <el>40</el>
                <el>47</el>
                <el>54</el>
                <el>57</el>
                <el>64</el>
                <el>71</el>
                <el>78</el>
                <el>81</el>
                <el>88</el>
                <el>95</el>
                <el>102</el>
                <el>105</el>
                <el>112</el>
                <el>119</el>
                <el>126</el>
                <el>130</el>
                <el>137</el>
                <el>144</el>
                <el>151</el>
                <el>158</el>
                <el>160</el>
                <el>162</el>
                <el>164</el>
                <el>166</el>
                <el>168</el>
                <el>170</el>
                <el>172</el>
                <el>174</el>
                <el>176</el>
                <el>178</el>
                <el>180</el>
                <el>182</el>
                <el>184</el>
                <el>186</el>
                <el>188</el>
                <el>190</el>
                <el>191</el>
                <el>194</el>
                <el>197</el>
                <el>200</el>
                <el>201</el>
                <el>204</el>
                <el>207</el>
                <el>210</el>
                <el>211</el>
                <el>214</el>
                <el>217</el>
                <el>220</el>
                <el>223</el>
                <el>224</el>
                <el>227</el>
                <el>230</el>
                <el>233</el>
                <el>234</el>
                <el>237</el>
                <el>240</el>
                <el>243</el>
                <el>244</el>
                <el>247</el>
                <el>250</el>
                <el>253</el>
                <el>256</el>
                <el>257</el>
                <el>260</el>
                <el>263</el>
                <el>266</el>
                <el>267</el>
                <el>270</el>
                <el>273</el>
                <el>276</el>
                <el>277</el>
                <el>280</el>
                <el>283</el>
                <el>286</el>
                <el>289</el>
                <el>290</el>
                <el>293</el>
                <el>296</el>
                <el>299</el>
                <el>300</el>
                <el>303</el>
                <el>306</el>
                <el>309</el>
                <el>310</el>
            </start>
            <rowIdx>
                <el>99</el>
                <el>0</el>
                <el>0</el>
                <el>8</el>
                <el>14</el>
                <el>19</el>
                <el>35</el>
                <el>51</el>
                <el>67</el>
                <el>0</el>
                <el>8</el>
                <el>15</el>
                <el>20</el>
                <el>36</el>
                <el>52</el>
                <el>68</el>
                <el>0</el>
                <el>8</el>
                <el>16</el>
                <el>21</el>
                <el>37</el>
                <el>53</el>
                <el>69</el>
                <el>0</el>
                <el>8</el>
                <el>17</el>
                <el>22</el>
                <el>38</el>
                <el>54</el>
                <el>70</el>
                <el>0</el>
                <el>9</el>
                <el>13</el>
                <el>0</el>
                <el>9</el>
                <el>15</el>
                <el>23</el>
                <el>39</el>
                <el>55</el>
                <el>71</el>
                <el>0</el>
                <el>9</el>
                <el>16</el>
                <el>24</el>
                <el>40</el>
                <el>56</el>
                <el>72</el>
                <el>0</el>
                <el>9</el>
                <el>17</el>
                <el>25</el>
                <el>41</el>
                <el>57</el>
                <el>73</el>
                <el>0</el>
                <el>10</el>
                <el>13</el>
                <el>0</el>
                <el>10</el>
                <el>14</el>
                <el>26</el>
                <el>42</el>
                <el>58</el>
                <el>74</el>
                <el>0</el>
                <el>10</el>
                <el>16</el>
                <el>27</el>
                <el>43</el>
                <el>59</el>
                <el>75</el>
                <el>0</el>
                <el>10</el>
                <el>17</el>
                <el>28</el>
                <el>44</el>
                <el>60</el>
                <el>76</el>
                <el>0</el>
                <el>11</el>
                <el>13</el>
                <el>0</el>
                <el>11</el>
                <el>14</el>
                <el>29</el>
                <el>45</el>
                <el>61</el>
                <el>77</el>
                <el>0</el>
                <el>11</el>
                <el>15</el>
                <el>30</el>
                <el>46</el>
                <el>62</el>
                <el>78</el>
                <el>0</el>
                <el>11</el>
                <el>17</el>
                <el>31</el>
                <el>47</el>
                <el>63</el>
                <el>79</el>
                <el>0</el>
                <el>12</el>
                <el>13</el>
                <el>0</el>
                <el>12</el>
                <el>14</el>
                <el>32</el>
                <el>48</el>
                <el>64</el>
                <el>80</el>
                <el>0</el>
                <el>12</el>
                <el>15</el>
                <el>33</el>
                <el>49</el>
                <el>65</el>
                <el>81</el>
                <el>0</el>
                <el>12</el>
                <el>16</el>
                <el>34</el>
                <el>50</el>
                <el>66</el>
                <el>82</el>
                <el>2</el>
                <el>7</el>
                <el>8</el>
                <el>13</el>
                <el>1</el>
                <el>3</el>
                <el>9</el>
                <el>14</el>
                <el>18</el>
                <el>83</el>
                <el>99</el>
                <el>1</el>
                <el>4</el>
                <el>10</el>
                <el>15</el>
                <el>18</el>
                <el>84</el>
                <el>99</el>
                <el>1</el>
                <el>5</el>
                <el>11</el>
                <el>16</el>
                <el>18</el>
                <el>85</el>
                <el>99</el>
                <el>1</el>
                <el>6</el>
                <el>12</el>
                <el>17</el>
                <el>18</el>
                <el>86</el>
                <el>99</el>
                <el>19</el>
                <el>83</el>
                <el>35</el>
                <el>90</el>
                <el>51</el>
                <el>93</el>
                <el>67</el>
                <el>96</el>
                <el>20</el>
                <el>87</el>
                <el>36</el>
                <el>84</el>
                <el>52</el>
                <el>94</el>
                <el>68</el>
                <el>97</el>
                <el>21</el>
                <el>88</el>
                <el>37</el>
                <el>91</el>
                <el>53</el>
                <el>85</el>
                <el>69</el>
                <el>98</el>
                <el>22</el>
                <el>89</el>
                <el>38</el>
                <el>92</el>
                <el>54</el>
                <el>95</el>
                <el>70</el>
                <el>86</el>
                <el>23</el>
                <el>39</el>
                <el>84</el>
                <el>90</el>
                <el>55</el>
                <el>93</el>
                <el>94</el>
                <el>71</el>
                <el>96</el>
                <el>97</el>
                <el>24</el>
                <el>40</el>
                <el>90</el>
                <el>91</el>
                <el>56</el>
                <el>85</el>
                <el>93</el>
                <el>72</el>
                <el>96</el>
                <el>98</el>
                <el>25</el>
                <el>41</el>
                <el>90</el>
                <el>92</el>
                <el>57</el>
                <el>93</el>
                <el>95</el>
                <el>73</el>
                <el>86</el>
                <el>96</el>
                <el>26</el>
                <el>83</el>
                <el>87</el>
                <el>42</el>
                <el>58</el>
                <el>93</el>
                <el>94</el>
                <el>74</el>
                <el>96</el>
                <el>97</el>
                <el>27</el>
                <el>87</el>
                <el>88</el>
                <el>43</el>
                <el>59</el>
                <el>85</el>
                <el>94</el>
                <el>75</el>
                <el>97</el>
                <el>98</el>
                <el>28</el>
                <el>87</el>
                <el>89</el>
                <el>44</el>
                <el>60</el>
                <el>94</el>
                <el>95</el>
                <el>76</el>
                <el>86</el>
                <el>97</el>
                <el>29</el>
                <el>83</el>
                <el>88</el>
                <el>45</el>
                <el>90</el>
                <el>91</el>
                <el>61</el>
                <el>77</el>
                <el>96</el>
                <el>98</el>
                <el>30</el>
                <el>87</el>
                <el>88</el>
                <el>46</el>
                <el>84</el>
                <el>91</el>
                <el>62</el>
                <el>78</el>
                <el>97</el>
                <el>98</el>
                <el>31</el>
                <el>88</el>
                <el>89</el>
                <el>47</el>
                <el>91</el>
                <el>92</el>
                <el>63</el>
                <el>79</el>
                <el>86</el>
                <el>98</el>
                <el>32</el>
                <el>83</el>
                <el>89</el>
                <el>48</el>
                <el>90</el>
                <el>92</el>
                <el>64</el>
                <el>93</el>
                <el>95</el>
                <el>80</el>
                <el>33</el>
                <el>87</el>
                <el>89</el>
                <el>49</el>
                <el>84</el>
                <el>92</el>
                <el>65</el>
                <el>94</el>
                <el>95</el>
                <el>81</el>
                <el>34</el>
                <el>88</el>
                <el>89</el>
                <el>50</el>
                <el>91</el>
                <el>92</el>
                <el>66</el>
                <el>85</el>
                <el>95</el>
                <el>82</el>
            </rowIdx>
            <value>
                <el>1</el>
                <el>1</el>
                <el>-3</el>
                <el>1</el>
                <el>1</el>
                <el>-1</el>
                <el>-1</el>
                <el>-1</el>
                <el>-1</el>
                <el>-3</el>
                <el>1</el>
                <el>1</el>
                <el>-1</el>
                <el>-1</el>
                <el>-1</el>
                <el>-1</el>
                <el>-3</el>
                <el>1</el>
                <el>1</el>
                <el>-1</el>
                <el>-1</el>
                <el>-1</el>
                <el>-1</el>
                <el>-3</el>
                <el>1</el>
                <el>1</el>
                <el>-1</el>
                <el>-1</el>
                <el>-1</el>
                <el>-1</el>
                <el>-3</el>
                <el>1</el>
                <el>1</el>
                <el>-3</el>
                <el>1</el>
                <el>1</el>
                <el>-1</el>
                <el>-1</el>
                <el>-1</el>
                <el>-1</el>
                <el>-3</el>
                <el>1</el>
                <el>1</el>
                <el>-1</el>
                <el>-1</el>
                <el>-1</el>
                <el>-1</el>
                <el>-3</el>
                <el>1</el>
                <el>1</el>
                <el>-1</el>
                <el>-1</el>
                <el>-1</el>
                <el>-1</el>
                <el>-3</el>
                <el>1</el>
                <el>1</el>
                <el>-3</el>
                <el>1</el>
                <el>1</el>
                <el>-1</el>
                <el>-1</el>
                <el>-1</el>
                <el>-1</el>
                <el>-3</el>
                <el>1</el>
                <el>1</el>
                <el>-1</el>
                <el>-1</el>
                <el>-1</el>
                <el>-1</el>
                <el>-3</el>
                <el>1</el>
                <el>1</el>
                <el>-1</el>
                <el>-1</el>
                <el>-1</el>
                <el>-1</el>
                <el>-3</el>
                <el>1</el>
                <el>1</el>
                <el>-3</el>
                <el>1</el>
                <el>1</el>
                <el>-1</el>
                <el>-1</el>
                <el>-1</el>
                <el>-1</el>
                <el>-3</el>
                <el>1</el>
                <el>1</el>
                <el>-1</el>
                <el>-1</el>
                <el>-1</el>
                <el>-1</el>
                <el>-3</el>
                <el>1</el>
                <el>1</el>
                <el>-1</el>
                <el>-1</el>
                <el>-1</el>
                <el>-1</el>
                <el>-3</el>
                <el>1</el>
                <el>1</el>
                <el>-3</el>
                <el>1</el>
                <el>1</el>
                <el>-1</el>
                <el>-1</el>
                <el>-1</el>
                <el>-1</el>
                <el>-3</el>
                <el>1</el>
                <el>1</el>
                <el>-1</el>
                <el>-1</el>
                <el>-1</el>
                <el>-1</el>
                <el>-3</el>
                <el>1</el>
                <el>1</el>
                <el>-1</el>
                <el>-1</el>
                <el>-1</el>
                <el>-1</el>
                <el>1</el>
                <el>1</el>
                <el>-1</el>
                <el>-1</el>
                <el>1</el>
                <el>1</el>
                <el>-1</el>
                <el>-1</el>
                <el>1</el>
                <el>-1</el>
                <el>-1</el>
                <el>1</el>
                <el>1</el>
                <el>-1</el>
                <el>-1</el>
                <el>1</el>
                <el>-1</el>
                <el>-1</el>
                <el>1</el>
                <el>1</el>
                <el>-1</el>
                <el>-1</el>
                <el>1</el>
                <el>-1</el>
                <el>-1</el>
                <el>1</el>
                <el>1</el>
                <el>-1</el>
                <el>-1</el>
                <el>1</el>
                <el>-1</el>
                <el>-1</el>
                <el>1</el>
                <el>1</el>
                <el>1</el>
                <el>1</el>
                <el>1</el>
                <el>1</el>
                <el>1</el>
                <el>1</el>
                <el>1</el>
                <el>1</el>
                <el>1</el>
                <el>1</el>
                <el>1</el>
                <el>1</el>
                <el>1</el>
                <el>1</el>
                <el>1</el>
                <el>1</el>
                <el>1</el>
                <el>1</el>
                <el>1</el>
                <el>1</el>
                <el>1</el>
                <el>1</el>
                <el>1</el>
                <el>1</el>
                <el>1</el>
                <el>1</el>
                <el>1</el>
                <el>1</el>
                <el>1</el>
                <el>1</el>
                <el>1</el>
                <el>1</el>
                <el>1</el>
                <el>-1</el>
                <el>1</el>
                <el>-1</el>
                <el>1</el>
                <el>1</el>
                <el>-1</el>
                <el>1</el>
                <el>1</el>
                <el>1</el>
                <el>-1</el>
                <el>1</el>
                <el>1</el>
                <el>1</el>
                <el>-1</el>
                <el>1</el>
                <el>-1</el>
                <el>1</el>
                <el>1</el>
                <el>1</el>
                <el>-1</el>
                <el>1</el>
                <el>1</el>
                <el>-1</el>
                <el>1</el>
                <el>1</el>
                <el>1</el>
                <el>-1</el>
                <el>1</el>
                <el>1</el>
                <el>-1</el>
                <el>1</el>
                <el>1</el>
                <el>1</el>
                <el>-1</el>
                <el>1</el>
                <el>1</el>
                <el>-1</el>
                <el>1</el>
                <el>-1</el>
                <el>1</el>
                <el>1</el>
                <el>1</el>
                <el>1</el>
                <el>-1</el>
                <el>1</el>
                <el>-1</el>
                <el>1</el>
                <el>1</el>
                <el>-1</el>
                <el>1</el>
                <el>1</el>
                <el>1</el>
                <el>-1</el>
                <el>1</el>
                <el>1</el>
                <el>1</el>
                <el>-1</el>
                <el>1</el>
                <el>1</el>
                <el>-1</el>
                <el>1</el>
                <el>1</el>
                <el>-1</el>
                <el>1</el>
                <el>1</el>
                <el>1</el>
                <el>-1</el>
                <el>1</el>
                <el>1</el>
                <el>-1</el>
                <el>1</el>
                <el>1</el>
                <el>-1</el>
                <el>1</el>
                <el>1</el>
                <el>1</el>
                <el>-1</el>
                <el>1</el>
                <el>-1</el>
                <el>1</el>
                <el>1</el>
                <el>-1</el>
                <el>1</el>
                <el>1</el>
                <el>1</el>
                <el>1</el>
                <el>-1</el>
                <el>1</el>
                <el>1</el>
                <el>-1</el>
                <el>1</el>
                <el>1</el>
                <el>-1</el>
                <el>1</el>
                <el>1</el>
                <el>-1</el>
                <el>1</el>
                <el>1</el>
                <el>1</el>
                <el>-1</el>
                <el>1</el>
                <el>1</el>
                <el>-1</el>
                <el>1</el>
                <el>1</el>
                <el>-1</el>
                <el>1</el>
                <el>1</el>
                <el>1</el>
                <el>-1</el>
                <el>1</el>
                <el>1</el>
                <el>-1</el>
                <el>1</el>
                <el>1</el>
                <el>-1</el>
                <el>1</el>
            </value>
        </linearConstraintCoefficients>
    </instanceData>
</osil>
